# Solution for model GasLib-40
# Objective value = 2.2648056954500870e+01
loadshed[innode_1] 0
loadshed[innode_2] 0
loadshed[innode_3] 0
loadshed[innode_4] 0
loadshed[innode_5] 0
loadshed[innode_6] 0
loadshed[innode_7] 0
loadshed[innode_8] 0
loadshed[source_1] -1.2737016353354624e-01
loadshed[source_2] 3.5057087274613319e-02
loadshed[source_3] 2.3557335306310945e-01
loadshed[sink_1] 0
loadshed[sink_2] 0
loadshed[sink_3] 0
loadshed[sink_4] 0
loadshed[sink_5] 0
loadshed[sink_6] 0
loadshed[sink_7] 0
loadshed[sink_8] 0
loadshed[sink_9] 0
loadshed[sink_10] 0
loadshed[sink_11] 0
loadshed[sink_12] 1
loadshed[sink_13] 0
loadshed[sink_14] 0
loadshed[sink_15] 0
loadshed[sink_16] 0
loadshed[sink_17] 0
loadshed[sink_18] 0
loadshed[sink_19] 0
loadshed[sink_20] 0
loadshed[sink_21] 3.8484934244081742e-01
loadshed[sink_22] 0
loadshed[sink_23] 0
loadshed[sink_24] 0
loadshed[sink_25] 0
loadshed[sink_26] 0
loadshed[sink_27] 0
loadshed[sink_28] 0
loadshed[sink_29] 0
flow[source_1,sink_3] 1.7822626231139708e+02
flow[innode_1,sink_16] 1.6354166666666970e+01
flow[innode_6,sink_13] -6.3692542883212155e+00
flow[sink_13,sink_14] -2.2723420954987883e+01
flow[sink_14,sink_10] -3.9077587621654551e+01
flow[sink_25,sink_26] 1.5607541581581697e+02
flow[sink_26,sink_9] 8.1770833333333655e+01
flow[sink_9,sink_18] 6.5416666666666671e+01
flow[sink_26,sink_4] 5.7950415815816655e+01
flow[sink_4,sink_20] -3.3880693896349158e+01
flow[sink_18,sink_6] 4.9062500000000313e+01
flow[sink_25,innode_8] -1.4551792897806072e+02
flow[sink_6,sink_7] 0
flow[sink_6,sink_22] 3.2708333333333641e+01
flow[sink_7,sink_24] 2.6414443045499130e+01
flow[sink_22,sink_1] 1.6354166666666970e+01
flow[sink_24,sink_21] 1.0060276378832466e+01
flow[sink_21,sink_12] 0
flow[sink_7,sink_5] -42.7686097121658
flow[sink_5,sink_17] -5.9122776378832469e+01
flow[sink_17,sink_4] -7.5476943045499127e+01
flow[sink_17,sink_8] 0
flow[sink_3,sink_23] 16.3541666666697
flow[sink_8,sink_20] -1.6354166666668334e+01
flow[sink_25,sink_20] 6.6589027229684149e+01
flow[sink_25,sink_15] -8.7131426445786460e+01
flow[sink_15,sink_29] -5.8272077653211049e+01
flow[sink_29,sink_28] 1.6354166666667879e+01
flow[sink_29,sink_2] 6.1567682125908753e+01
flow[sink_2,sink_15] 4.5213515459242089e+01
flow[sink_29,innode_7] -1.5254809311245435e+02
flow[innode_4,sink_19] 4.6914545517062386e+01
flow[sink_19,innode_3] 4.3011990720260272e+01
flow[innode_4,innode_5] 7.3933875437925892e+01
flow[sink_27,innode_5] -7.3933875437925892e+01
flow[sink_27,sink_19] 5.7579708771259220e+01
flow[sink_10,sink_11] 3.2708333333333641e+01
flow[sink_10,innode_2] -4.5128096901394585e+01
flow[sink_10,innode_3] -4.3011990720260272e+01
flow[innode_6,sink_25] 6.3692542883212155e+00
flow[sink_11,innode_1] 1.6354166666666970e+01
flow[sink_19,innode_2] 4.5128096901394585e+01
flow[source_3,innode_4] 1.2084842095498828e+02
flow[source_2,innode_7] 1.5254809311245435e+02
flow[sink_3,innode_8] 1.4551792897806072e+02
pressure[innode_1] 7.6575714608173669e+01
pressure[innode_2] 7.9112622222160510e+01
pressure[innode_3] 7.9017377039290054e+01
pressure[innode_4] 81.01325
pressure[innode_5] 8.0962394381928462e+01
pressure[innode_6] 7.4803322760014524e+01
pressure[innode_7] 81.01325
pressure[innode_8] 80.417507689993
pressure[source_1] 81.01325
pressure[source_2] 81.01325
pressure[source_3] 81.01325
pressure[sink_1] 5.3138665048558266e+01
pressure[sink_2] 75.3736072441171
pressure[sink_3] 80.417507689993
pressure[sink_4] 5.6443057032920748e+01
pressure[sink_5] 4.9154357658727449e+01
pressure[sink_6] 5.5239742658945644e+01
pressure[sink_7] 3.1367227330459663e+01
pressure[sink_8] 5.7789046850197330e+01
pressure[sink_9] 5.8916827462403930e+01
pressure[sink_10] 7.6727415915777215e+01
pressure[sink_11] 7.6575714608173669e+01
pressure[sink_12] 1.0132499999999967e+00
pressure[sink_13] 7.4838435394504771e+01
pressure[sink_14] 74.8791008919112
pressure[sink_15] 7.5225995081040978e+01
pressure[sink_16] 7.5554064773355989e+01
pressure[sink_17] 5.3558577147248322e+01
pressure[sink_18] 5.6549857487205273e+01
pressure[sink_19] 7.9112622222160510e+01
pressure[sink_20] 5.8928702273785618e+01
pressure[sink_21] 1.0132499999999967e+00
pressure[sink_22] 5.4202434190913280e+01
pressure[sink_23] 8.0252789678333215e+01
pressure[sink_24] 1.1246582137840520e+00
pressure[sink_25] 7.4803322760014524e+01
pressure[sink_26] 6.3811022882115282e+01
pressure[sink_27] 8.0348879830906085e+01
pressure[sink_28] 7.6637903842092840e+01
pressure[sink_29] 7.6933186115710015e+01
interdiction[source_1,sink_3] 0
interdiction[innode_1,sink_16] 0
interdiction[innode_6,sink_13] 0
interdiction[sink_13,sink_14] 0
interdiction[sink_14,sink_10] 0
interdiction[sink_25,sink_26] 0
interdiction[sink_26,sink_9] 0
interdiction[sink_9,sink_18] 0
interdiction[sink_26,sink_4] 0
interdiction[sink_4,sink_20] 0
interdiction[sink_18,sink_6] 0
interdiction[sink_25,innode_8] 0
interdiction[sink_6,sink_7] 1
interdiction[sink_6,sink_22] 0
interdiction[sink_7,sink_24] 0
interdiction[sink_22,sink_1] 0
interdiction[sink_24,sink_21] 0
interdiction[sink_21,sink_12] 0
interdiction[sink_7,sink_5] 0
interdiction[sink_5,sink_17] 0
interdiction[sink_17,sink_4] 0
interdiction[sink_17,sink_8] 1
interdiction[sink_3,sink_23] 0
interdiction[sink_8,sink_20] 0
interdiction[sink_25,sink_20] 0
interdiction[sink_25,sink_15] 0
interdiction[sink_15,sink_29] 0
interdiction[sink_29,sink_28] 0
interdiction[sink_29,sink_2] 0
interdiction[sink_2,sink_15] 0
interdiction[sink_29,innode_7] 0
interdiction[innode_4,sink_19] 0
interdiction[sink_19,innode_3] 0
interdiction[innode_4,innode_5] 0
interdiction[sink_27,innode_5] 0
interdiction[sink_27,sink_19] 0
interdiction[sink_10,sink_11] 0
interdiction[sink_10,innode_2] 0
interdiction[sink_10,innode_3] 0
interdiction[innode_6,sink_25] 0
interdiction[sink_11,innode_1] 0
interdiction[sink_19,innode_2] 0
interdiction[source_3,innode_4] 0
interdiction[source_2,innode_7] 0
interdiction[sink_3,innode_8] 0
WCcheckFlow[source_1,sink_3] 39
WCcheckFlow[innode_1,sink_16] 1
WCcheckFlow[innode_6,sink_13] 13
WCcheckFlow[sink_13,sink_14] 12
WCcheckFlow[sink_14,sink_10] 11
WCcheckFlow[sink_25,sink_26] 15
WCcheckFlow[sink_26,sink_9] 5
WCcheckFlow[sink_9,sink_18] 4
WCcheckFlow[sink_26,sink_4] 9
WCcheckFlow[sink_4,sink_20] 2
WCcheckFlow[sink_18,sink_6] 3
WCcheckFlow[sink_25,innode_8] -36
WCcheckFlow[sink_6,sink_7] 0
WCcheckFlow[sink_6,sink_22] 2
WCcheckFlow[sink_7,sink_24] 3
WCcheckFlow[sink_22,sink_1] 1
WCcheckFlow[sink_24,sink_21] 2
WCcheckFlow[sink_21,sink_12] 1
WCcheckFlow[sink_7,sink_5] -4
WCcheckFlow[sink_5,sink_17] -5
WCcheckFlow[sink_17,sink_4] -6
WCcheckFlow[sink_17,sink_8] 0
WCcheckFlow[sink_3,sink_23] 1
WCcheckFlow[sink_8,sink_20] -1
WCcheckFlow[sink_25,sink_20] 0
WCcheckFlow[sink_25,sink_15] 6
WCcheckFlow[sink_15,sink_29] 5
WCcheckFlow[sink_29,sink_28] 1
WCcheckFlow[sink_29,sink_2] 1
WCcheckFlow[sink_2,sink_15] 0
WCcheckFlow[sink_29,innode_7] 2
WCcheckFlow[innode_4,sink_19] -4
WCcheckFlow[sink_19,innode_3] -5
WCcheckFlow[innode_4,innode_5] 2
WCcheckFlow[sink_27,innode_5] -1
WCcheckFlow[sink_27,sink_19] 0
WCcheckFlow[sink_10,sink_11] 3
WCcheckFlow[sink_10,innode_2] 1
WCcheckFlow[sink_10,innode_3] 6
WCcheckFlow[innode_6,sink_25] -14
WCcheckFlow[sink_11,innode_1] 2
WCcheckFlow[sink_19,innode_2] 0
WCcheckFlow[source_3,innode_4] -1
WCcheckFlow[source_2,innode_7] -1
WCcheckFlow[sink_3,innode_8] 37
